************************************************************************
file with basedata            : J12015_.BAS
initial value random generator: 232585664
************************************************************************
projects                      :  1
jobs (incl. supersource/sink ):  122
horizon                       :  689
RESOURCES
  - renewable                 :  4   R
  - nonrenewable              :  0   N
  - doubly constrained        :  0   D
************************************************************************
PROJECT INFORMATION:
pronr.  #jobs rel.date duedate tardcost  MPM-Time
    1    120      0       75       70       75
************************************************************************
PRECEDENCE RELATIONS:
jobnr.    #modes  #successors   successors
   1        1          3           2   3   4
   2        1          1          34
   3        1          3           5   9  13
   4        1          3          12  18  73
   5        1          3           6   7   8
   6        1          3          10  11  26
   7        1          3          21  25  91
   8        1          1          15
   9        1          3          20  23  37
  10        1          2          16 113
  11        1          1          78
  12        1          2          14  36
  13        1          2          14  95
  14        1          1          64
  15        1          3          16  17  88
  16        1          2          41  63
  17        1          3          19  30  89
  18        1          3          22  31  77
  19        1          2          24  27
  20        1          3          28  36  72
  21        1          1          54
  22        1          2          40  45
  23        1          1          42
  24        1          1          29
  25        1          1          80
  26        1          3          33  71 115
  27        1          3          50  52  70
  28        1          1          62
  29        1          2          32 119
  30        1          3          44  68 102
  31        1          3          38  59 107
  32        1          1         112
  33        1          2          35 109
  34        1          3          51  60  74
  35        1          1          65
  36        1          1          83
  37        1          3          47  49  53
  38        1          3          39  48  61
  39        1          1          46
  40        1          1          48
  41        1          2          43  91
  42        1          1          55
  43        1          2          82 111
  44        1          2          66  75
  45        1          1          91
  46        1          1          55
  47        1          3          56  57  58
  48        1          1          78
  49        1          1          67
  50        1          1          82
  51        1          1          56
  52        1          1          65
  53        1          1          60
  54        1          1          80
  55        1          1          65
  56        1          1          80
  57        1          2         104 114
  58        1          1          74
  59        1          1          81
  60        1          1          97
  61        1          2          64  87
  62        1          2          76  86
  63        1          2          69  78
  64        1          1         108
  65        1          1          94
  66        1          1          76
  67        1          1          85
  68        1          2          79  90
  69        1          1          92
  70        1          1          96
  71        1          1          88
  72        1          2         106 108
  73        1          1         103
  74        1          1          84
  75        1          1         115
  76        1          1          94
  77        1          1          82
  78        1          1         102
  79        1          1          87
  80        1          1          84
  81        1          1         105
  82        1          2         102 105
  83        1          2          98 103
  84        1          1         109
  85        1          1          92
  86        1          2         100 117
  87        1          1          93
  88        1          1         112
  89        1          3          99 101 105
  90        1          1         110
  91        1          1         106
  92        1          1          96
  93        1          1          96
  94        1          1         103
  95        1          1          97
  96        1          1         101
  97        1          1         111
  98        1          1         107
  99        1          1         100
 100        1          1         115
 101        1          1         118
 102        1          1         114
 103        1          1         119
 104        1          1         110
 105        1          1         108
 106        1          1         116
 107        1          2         109 112
 108        1          2         117 121
 109        1          1         118
 110        1          1         116
 111        1          1         116
 112        1          1         120
 113        1          1         118
 114        1          1         119
 115        1          1         121
 116        1          1         117
 117        1          1         120
 118        1          1         121
 119        1          1         122
 120        1          1         122
 121        1          1         122
 122        1          0        
************************************************************************
REQUESTS/DURATIONS:
jobnr. mode duration  R 1  R 2  R 3  R 4
------------------------------------------------------------------------
  1      1     0       0    0    0    0
  2      1    10       0    3    4    5
  3      1     9       3    8    9    0
  4      1     8       0    2    4    5
  5      1     3       3   10    0    5
  6      1     2       0    0    6    6
  7      1     8       3    9    0    4
  8      1     2      10    9    5    9
  9      1     4      10    7    0    0
 10      1    10       2    6    0    0
 11      1     7       0    0    3    8
 12      1     1       3    9    6    5
 13      1    10       0    9    2    5
 14      1     2       0    6    0    1
 15      1     5       7    1    8    4
 16      1     5       7    0    0    2
 17      1     2       7    0    0    1
 18      1     4       0    4    8    7
 19      1     8       3    7    1    6
 20      1     2       5    9    0   10
 21      1     4       9    5   10    9
 22      1    10       3    7   10    3
 23      1     6       7    0    7   10
 24      1     8       4   10    3   10
 25      1    10       5    0   10    1
 26      1     8       2    0    3    3
 27      1     5       0    2    3    0
 28      1     4       2    3    2   10
 29      1     5       8    2    7    2
 30      1     5       6    2    0    8
 31      1     3       7    8    9    9
 32      1     7       0    1    2    0
 33      1     7       1    0    0    0
 34      1     6       0    7   10    2
 35      1     6       0   10    4    8
 36      1     6       0    3    0    0
 37      1     7       3    4    6    1
 38      1    10       6    4    0    3
 39      1     2      10    0    5    0
 40      1     4       0    8   10    3
 41      1     9       1    0    0    4
 42      1     4       8   10    9    0
 43      1     4       7   10    3    9
 44      1     5       8    1    4    2
 45      1     9       6    8    8    2
 46      1     9       7    5    2   10
 47      1     9       0    4    9    0
 48      1     5       7    9    1    5
 49      1     9       0    0    6    7
 50      1     5       9    0    7    0
 51      1     8       0   10    5    0
 52      1     5       4    0    5    7
 53      1     5       2    2    2    0
 54      1     1       0    0    9    0
 55      1     6       9    5    5    1
 56      1     4       0    4    4    4
 57      1     4       6    0    0    6
 58      1     4       3    0    8    3
 59      1     7       0    7    1    5
 60      1     8       1    7    9    0
 61      1     4       0    9    0    9
 62      1     9      10    7   10    0
 63      1    10       0   10    4    7
 64      1     5       8    5    2    1
 65      1     6       8    1    4    4
 66      1    10       2    0    5    2
 67      1     6       7    1    1    8
 68      1     3       0    8    6    6
 69      1     3       6    1    0    2
 70      1     5       3    1    0    3
 71      1     9       2    5    4    0
 72      1     8       7    7   10    4
 73      1     9       0    4    5    2
 74      1     5      10    5    9    0
 75      1     9      10    4    3    9
 76      1     6       0    7    9    0
 77      1    10       0    0    6   10
 78      1    10       1    4    4    2
 79      1     3       6    9    1    6
 80      1     1       5   10    5    0
 81      1     5       1   10    3    4
 82      1     1       0    8    8    5
 83      1     9       3   10    4    0
 84      1     5       3    8    2    0
 85      1    10       8    6    0    0
 86      1     7       8   10    4    3
 87      1     2       4    0    3    0
 88      1     1       8    6    8    4
 89      1     2       6    9    2    2
 90      1     1       9    8    8    0
 91      1     4       0    0    0    2
 92      1     3       0    2    2    0
 93      1     6       0    4    8    4
 94      1     2       5    3    0    6
 95      1     4       3    6    8    0
 96      1     5       4    4    1    8
 97      1     7       2    0    1    0
 98      1     4       0    5    3    5
 99      1     7       9    4    7    7
100      1     9       0    0    8    7
101      1     3       0    7    2    2
102      1     5       8    9    9    6
103      1     7       5    2   10    0
104      1     8      10    9    0    4
105      1     8       9    2    0    6
106      1     7       6    4    9    6
107      1     5       0    4    4    5
108      1     5      10    0    1    0
109      1     3       0   10    2    0
110      1     3       6    9    3    8
111      1     4       2    7    5    2
112      1     4       0    3    6    2
113      1     3      10    6    2    0
114      1     6       9    9    0    4
115      1     3       0    1    8    7
116      1    10       1    2    0   10
117      1     9       3    6    4    0
118      1     7       4    4    6    4
119      1    10       0    0    5    9
120      1     7       3    2    4    9
121      1     2       2    0    8    0
122      1     0       0    0    0    0
************************************************************************
RESOURCEAVAILABILITIES:
  R 1  R 2  R 3  R 4
   55   65   60   50
************************************************************************
